c Instancia generada aleatoriamente
p edge 30 5 12
v 2 1 2
v 2 3 4
v 2 5 6
v 2 7 8
v 2 9 10
v 2 11 12
v 2 13 14
v 2 15 16
v 2 17 18
v 2 19 20
v 2 21 22
v 8 23 24 25 26 27 28 29 30
e 1 3
e 1 7
e 1 8
e 1 10
e 1 12
e 1 14
e 1 20
e 1 22
e 1 23
e 1 24
e 1 26
e 1 27
e 1 28
e 1 29
e 2 3
e 2 7
e 2 10
e 2 12
e 2 16
e 2 18
e 2 19
e 2 22
e 2 25
e 2 26
e 2 29
e 2 30
e 3 4
e 3 5
e 3 6
e 3 7
e 3 11
e 3 13
e 3 18
e 3 19
e 3 23
e 3 26
e 3 28
e 3 29
e 4 6
e 4 7
e 4 9
e 4 15
e 4 17
e 4 21
e 4 22
e 4 25
e 4 28
e 4 30
e 5 7
e 5 8
e 5 9
e 5 10
e 5 11
e 5 13
e 5 14
e 5 16
e 5 17
e 5 18
e 5 23
e 5 25
e 5 26
e 5 27
e 5 29
e 5 30
e 6 8
e 6 10
e 6 12
e 6 14
e 6 16
e 6 17
e 6 24
e 6 25
e 6 27
e 6 28
e 6 29
e 6 30
e 7 11
e 7 12
e 7 14
e 7 16
e 7 18
e 7 20
e 7 21
e 7 24
e 7 25
e 7 26
e 7 29
e 8 10
e 8 12
e 8 15
e 8 21
e 9 11
e 9 12
e 9 15
e 9 17
e 9 19
e 9 21
e 9 22
e 9 23
e 9 24
e 9 26
e 9 30
e 10 13
e 10 14
e 10 17
e 10 18
e 10 20
e 10 21
e 10 22
e 10 25
e 10 27
e 10 28
e 10 29
e 11 12
e 11 14
e 11 15
e 11 19
e 11 20
e 11 24
e 11 26
e 11 30
e 12 14
e 12 15
e 12 18
e 12 19
e 12 20
e 12 24
e 12 26
e 12 27
e 12 28
e 12 30
e 13 15
e 13 16
e 13 17
e 13 22
e 13 24
e 13 29
e 14 16
e 14 20
e 14 22
e 14 23
e 14 25
e 14 26
e 14 28
e 14 29
e 14 30
e 15 18
e 15 20
e 15 23
e 15 24
e 15 25
e 15 26
e 15 27
e 15 28
e 15 29
e 16 21
e 16 22
e 16 23
e 16 26
e 16 27
e 16 28
e 16 29
e 17 18
e 17 19
e 17 20
e 17 21
e 17 22
e 17 25
e 17 28
e 17 29
e 18 21
e 18 23
e 18 25
e 18 26
e 18 27
e 19 20
e 19 22
e 19 23
e 19 24
e 19 27
e 19 28
e 20 21
e 20 22
e 20 25
e 20 26
e 20 28
e 20 29
e 20 30
e 21 22
e 21 25
e 21 26
e 21 27
e 21 28
e 22 23
e 22 24
e 22 29
e 22 30
e 23 25
e 23 26
e 24 25
e 24 27
e 24 28
e 24 30
e 25 26
e 25 27
e 25 29
e 25 30
e 26 28
e 27 28
e 27 29
e 29 30
